VER
4

OBJSENSE
MIN

VAR
244 2
HVECQRE 163
HVECPSD 81

CON
163 1
L= 163

OBJACOORD
1
0 1.0

ACOORD
252
0 1 1.0
1 2 1.0
2 3 1.0
3 4 1.0
4 5 1.0
5 6 1.0
6 7 1.0
7 8 1.0
8 9 1.0
9 10 1.0
10 11 1.0
11 12 1.0
12 13 1.0
13 14 1.0
14 15 1.0
15 16 1.0
16 17 1.0
17 18 1.0
18 19 1.0
19 20 1.0
20 21 1.0
21 22 1.0
22 23 1.0
23 24 1.0
24 25 1.0
25 26 1.0
26 27 1.0
27 28 1.0
28 29 1.0
29 30 1.0
30 31 1.0
31 32 1.0
32 33 1.0
33 34 1.0
34 35 1.0
35 36 1.0
36 37 1.0
37 38 1.0
38 39 1.0
39 40 1.0
40 41 1.0
41 42 1.0
42 43 1.0
43 44 1.0
44 45 1.0
45 46 1.0
46 47 1.0
47 48 1.0
48 49 1.0
49 50 1.0
50 51 1.0
51 52 1.0
52 53 1.0
53 54 1.0
54 55 1.0
55 56 1.0
56 57 1.0
57 58 1.0
58 59 1.0
59 60 1.0
60 61 1.0
61 62 1.0
62 63 1.0
63 64 1.0
64 65 1.0
65 66 1.0
66 67 1.0
67 68 1.0
68 69 1.0
69 70 1.0
70 71 1.0
71 72 1.0
72 73 1.0
73 74 1.0
74 75 1.0
75 76 1.0
76 77 1.0
77 78 1.0
78 79 1.0
79 80 1.0
80 81 1.0
81 82 1.0
81 85 1.0
81 90 1.0
81 97 1.0
81 106 1.0
81 117 1.0
81 130 1.0
81 145 1.0
81 162 1.0
82 82 1.0
82 163 -1.0
83 83 1.0
83 164 -1.0
84 84 -1.0
84 165 -1.0
85 85 1.0
85 166 -1.0
86 86 1.0
86 167 -1.0
87 87 -1.0
87 168 -1.0
88 88 1.0
88 169 -1.0
89 89 -1.0
89 170 -1.0
90 90 1.0
90 171 -1.0
91 91 1.0
91 172 -1.0
92 92 1.0
92 173 -1.0
93 98 1.0
93 174 -1.0
94 99 1.0
94 175 -1.0
95 107 1.0
95 176 -1.0
96 108 1.0
96 177 -1.0
97 97 1.0
97 178 -1.0
98 93 1.0
98 179 -1.0
99 94 1.0
99 180 -1.0
100 100 1.0
100 181 -1.0
101 101 1.0
101 182 -1.0
102 109 1.0
102 183 -1.0
103 110 1.0
103 184 -1.0
104 104 1.0
104 185 -1.0
105 105 -1.0
105 186 -1.0
106 106 1.0
106 187 -1.0
107 95 1.0
107 188 -1.0
108 96 1.0
108 189 -1.0
109 102 1.0
109 190 -1.0
110 103 1.0
110 191 -1.0
111 111 1.0
111 192 -1.0
112 112 1.0
112 193 -1.0
113 113 1.0
113 194 -1.0
114 114 -1.0
114 195 -1.0
115 115 1.0
115 196 -1.0
116 116 -1.0
116 197 -1.0
117 117 1.0
117 198 -1.0
118 118 1.0
118 199 -1.0
119 119 1.0
119 200 -1.0
120 131 1.0
120 201 -1.0
121 132 1.0
121 202 -1.0
122 146 1.0
122 203 -1.0
123 147 1.0
123 204 -1.0
124 124 1.0
124 205 -1.0
125 125 1.0
125 206 -1.0
126 137 1.0
126 207 -1.0
127 138 1.0
127 208 -1.0
128 152 1.0
128 209 -1.0
129 153 1.0
129 210 -1.0
130 130 1.0
130 211 -1.0
131 120 1.0
131 212 -1.0
132 121 1.0
132 213 -1.0
133 133 1.0
133 214 -1.0
134 134 1.0
134 215 -1.0
135 148 1.0
135 216 -1.0
136 149 1.0
136 217 -1.0
137 126 1.0
137 218 -1.0
138 127 1.0
138 219 -1.0
139 139 1.0
139 220 -1.0
140 140 1.0
140 221 -1.0
141 154 1.0
141 222 -1.0
142 155 1.0
142 223 -1.0
143 143 1.0
143 224 -1.0
144 144 -1.0
144 225 -1.0
145 145 1.0
145 226 -1.0
146 122 1.0
146 227 -1.0
147 123 1.0
147 228 -1.0
148 135 1.0
148 229 -1.0
149 136 1.0
149 230 -1.0
150 150 1.0
150 231 -1.0
151 151 1.0
151 232 -1.0
152 128 1.0
152 233 -1.0
153 129 1.0
153 234 -1.0
154 141 1.0
154 235 -1.0
155 142 1.0
155 236 -1.0
156 156 1.0
156 237 -1.0
157 157 1.0
157 238 -1.0
158 158 1.0
158 239 -1.0
159 159 -1.0
159 240 -1.0
160 160 1.0
160 241 -1.0
161 161 -1.0
161 242 -1.0
162 162 1.0
162 243 -1.0

BCOORD
82
0 0.12447802596487113
1 -0.06644709000323555
2 -0.05256212982510882
3 0.09643994779750367
4 0.010548936797204027
5 -0.03247817259493507
6 0.03186146689842243
7 0.04750843971792892
8 0.08055902981559003
9 -0.004926734687572038
10 -0.043238534887811604
11 -0.0049305224345712545
12 -0.02466703776424332
13 -0.04039409657465356
14 -0.03976181008217441
15 0.0672703572810068
16 -0.028643652160528697
17 0.03770487834990957
18 -0.07629760788887736
19 -0.02432403766655232
20 -0.091898345492772
21 0.004774348934564115
22 0.029608050658991327
23 -0.04371398915874081
24 0.1819837215338274
25 -0.022608234473929293
26 -0.008711185606712465
27 -0.012761457371293892
28 -0.03487895082349807
29 -0.010884076184995508
30 0.01105948222777776
31 0.030837166297345984
32 0.007337900059057538
33 -0.03860699695359185
34 0.03896242331723616
35 0.11145823215759915
36 -0.05453723555952659
37 0.024531845873560477
38 -0.012697582704292996
39 -0.031735938925889204
40 -0.02174103653625068
41 -0.012011362450124206
42 -0.0009695533710833598
43 -0.022730689062954463
44 0.04581868314256152
45 -0.02375036933661773
46 0.04020798995139114
47 0.04457153807613546
48 0.06987828136427718
49 -0.07266403028287038
50 -0.027475013876048716
51 0.04773277411142979
52 0.00363077864249729
53 0.011893575829948218
54 -0.052758876834947
55 0.02130845054910351
56 0.010576457334748008
57 0.029064337273922398
58 0.06815388873017755
59 0.05295627329663104
60 -0.033586524865420166
61 0.015253044110139594
62 0.006526275054841616
63 0.16174161470414763
64 -0.0295993494304535
65 -0.02426543103836764
66 0.06303902497431504
67 -0.011389159495021098
68 -0.009144234267942293
69 -0.007009582663532204
70 -0.0025147283924742605
71 -0.023473556191287784
72 -0.06400323683177479
73 0.03913352962851957
74 0.03970844192736466
75 -0.019141795065408737
76 -0.02196746580357976
77 -0.006258788318091946
78 -0.0023117225349349167
79 -0.05127163247636026
80 0.10619078938117704
81 1.0
